fitness = 1.0
3 4 8 3 4 8 3 4 8 3 4 8 3 4 8 3 4 8 3 4 8 3 4 8 3 4 8 3 4 8 3 4 8 3 4 8 3 4 8 3 4 8 3 4 8 3 4 1 6 5 5 5 5 5 5 5 5 5 5 5 5 5 5 5 5 5 5 5 5 5 5 5 5 5 5 5 5 5 5 5 5 5 5 5 5 5 5 5 5 6 5 6 5 6 5 6 5 6 5 6 5 6 5 6 5 6 5 6 5 6 5 6 5 6 5 6 5 6 5 6 5 6 5 6 5 6 5 6 5 6 5 6 5 6 5 6 5 